RSW01
Position Depot: Random
Horizon for Depot: Small
Position of customers: Random
Distribution of the demand: Large
Width of time windows: Wide
Distribution of the service: Large

VEHICLE 
NUMBER 	 CAPACITY 
 10 	 	 262 
 
CUSTOMER
CUST NO. 	 XCOORD.  	 YCOORD. 	 DEMAND 	 READY TIME 	 DUE DATE 	 SERVICE TIME 
 0 	 	 74 	 	 698 	 	 0 	 	 0 	 	 1655 	 	 0 
  1 	 	 250 	 	 921 	 	 25 	 	 1111 	 	 1386 	 	 170 
  2 	 	 265 	 	 989 	 	 9 	 	 1162 	 	 1655 	 	 147 
  3 	 	 80 	 	 364 	 	 68 	 	 424 	 	 715 	 	 184 
  4 	 	 580 	 	 480 	 	 56 	 	 1170 	 	 1655 	 	 173 
  5 	 	 727 	 	 573 	 	 29 	 	 248 	 	 731 	 	 175 
  6 	 	 120 	 	 814 	 	 56 	 	 1236 	 	 1655 	 	 147 
  7 	 	 229 	 	 454 	 	 87 	 	 951 	 	 1351 	 	 142 
  8 	 	 685 	 	 580 	 	 24 	 	 460 	 	 684 	 	 147 
  9 	 	 883 	 	 633 	 	 60 	 	 454 	 	 892 	 	 173 
  10 	 	 382 	 	 360 	 	 20 	 	 785 	 	 1087 	 	 169 
  11 	 	 488 	 	 548 	 	 37 	 	 1071 	 	 1377 	 	 116 
  12 	 	 623 	 	 225 	 	 37 	 	 552 	 	 797 	 	 183 
  13 	 	 232 	 	 866 	 	 55 	 	 893 	 	 1202 	 	 185 
  14 	 	 857 	 	 307 	 	 64 	 	 1352 	 	 1583 	 	 148 
  15 	 	 208 	 	 651 	 	 90 	 	 -70 	 	 288 	 	 195 
  16 	 	 306 	 	 636 	 	 27 	 	 774 	 	 980 	 	 197 
  17 	 	 467 	 	 333 	 	 54 	 	 372 	 	 625 	 	 121 
  18 	 	 517 	 	 52 	 	 95 	 	 640 	 	 923 	 	 102 
  19 	 	 526 	 	 507 	 	 63 	 	 514 	 	 995 	 	 154 
  20 	 	 29 	 	 949 	 	 83 	 	 1004 	 	 1427 	 	 149 
  21 	 	 985 	 	 243 	 	 67 	 	 634 	 	 1120 	 	 180 
  22 	 	 44 	 	 988 	 	 84 	 	 228 	 	 589 	 	 104 
  23 	 	 999 	 	 867 	 	 18 	 	 752 	 	 1043 	 	 157 
  24 	 	 149 	 	 147 	 	 33 	 	 834 	 	 1229 	 	 188 
  25 	 	 95 	 	 524 	 	 16 	 	 -53 	 	 343 	 	 161 
  26 	 	 375 	 	 215 	 	 5 	 	 880 	 	 1289 	 	 128 
  27 	 	 986 	 	 492 	 	 26 	 	 707 	 	 1028 	 	 125 
  28 	 	 542 	 	 1000 	 	 86 	 	 517 	 	 869 	 	 161 
  29 	 	 845 	 	 859 	 	 99 	 	 1007 	 	 1501 	 	 164 
  30 	 	 240 	 	 777 	 	 28 	 	 444 	 	 707 	 	 198 
  31 	 	 583 	 	 10 	 	 98 	 	 580 	 	 941 	 	 111 
  32 	 	 812 	 	 540 	 	 84 	 	 397 	 	 830 	 	 169 
  33 	 	 82 	 	 419 	 	 93 	 	 48 	 	 526 	 	 105 
  34 	 	 810 	 	 960 	 	 92 	 	 496 	 	 859 	 	 185 
  35 	 	 954 	 	 763 	 	 46 	 	 776 	 	 1073 	 	 151 
  36 	 	 474 	 	 861 	 	 11 	 	 613 	 	 1000 	 	 101 
  37 	 	 291 	 	 216 	 	 75 	 	 533 	 	 924 	 	 180 
  38 	 	 7 	 	 97 	 	 58 	 	 1248 	 	 1655 	 	 139 
  39 	 	 716 	 	 177 	 	 39 	 	 1343 	 	 1655 	 	 195 
  40 	 	 337 	 	 933 	 	 43 	 	 323 	 	 543 	 	 106 
  41 	 	 982 	 	 19 	 	 91 	 	 811 	 	 1247 	 	 141 
  42 	 	 989 	 	 730 	 	 5 	 	 538 	 	 1007 	 	 134 
  43 	 	 987 	 	 67 	 	 92 	 	 1147 	 	 1474 	 	 101 
  44 	 	 133 	 	 769 	 	 53 	 	 542 	 	 880 	 	 163 
  45 	 	 39 	 	 395 	 	 15 	 	 418 	 	 832 	 	 196 
  46 	 	 254 	 	 234 	 	 67 	 	 982 	 	 1405 	 	 172 
  47 	 	 270 	 	 10 	 	 1 	 	 1378 	 	 1655 	 	 199 
  48 	 	 486 	 	 725 	 	 98 	 	 115 	 	 494 	 	 109 
  49 	 	 977 	 	 612 	 	 32 	 	 899 	 	 1380 	 	 119 
  50 	 	 135 	 	 410 	 	 18 	 	 1066 	 	 1435 	 	 124 
 